unsat
(define-fun skel ((i_5 Bool) (i_6 Bool) (i_7 Bool) (i_4 Bool)) Bool (and (or (and (or (not i_6) i_7) (not i_4)) (and i_4 i_6)) i_5))
194.51user 0.06system 3:14.60elapsed 99%CPU (0avgtext+0avgdata 83360maxresident)k
0inputs+8outputs (0major+18584minor)pagefaults 0swaps
